NAME : mr62
COMMENT : 62-city problem (DISC)
TYPE : TSP
DIMENSION : 62
EDGE_WEIGHT_TYPE : EUC_2D
NODE_COORD_SECTION
1 4 20
2 49 19
3 85 77
4 42 55
5 64 87
6 30 17
7 55 28
8 23 52
9 25 52
10 96 4
11 65 74
12 2 27
13 100 91
14 74 88
15 73 35
16 42 35
17 21 66
18 97 80
19 23 40
20 5 98
21 89 71
22 89 86
23 97 93
24 62 51
25 99 75
26 41 14
27 16 33
28 59 93
29 39 100
30 30 10
31 2 93
32 47 4
33 92 13
34 11 89
35 43 83
36 14 49
37 12 19
38 93 68
39 62 73
40 28 68
41 74 96
42 19 6
43 29 94
44 30 19
45 52 6
46 39 89
47 24 13
48 81 60
49 71 97
50 85 36
51 37 49
52 34 60
53 93 91
54 78 10
55 60 21
56 89 87
57 68 92
58 2 6
59 81 22
60 67 59
61 30 12
62 53 21
EOF
